118 65,117 53,83 -3,73 34,95 38,101 55,37 22,35 9,46 -5,55 -24
104 26,90 24,25 39,108 -8,78 67,94 1,43 18,65 -14,62 12,89 -1
27 -16,111 6,27 63,74 51,86 62,66 -12,83 11,104 57,65 51,55 -27
99 32,52 23,111 -17,87 37,37 3,37 1,119 16,50 53,97 50,39 -15
110 16,47 1,20 -8,86 12,37 -19,81 -2,94 -2,49 28,91 58,67 -23
